c defined variables: 7 8 9 12 13 14 15 16 17 18 19 20 21 
p cnf 75 91
a 1 3 4 0
e 10 11 7 8 9 12 13 14 15 16 17 18 19 20 21 69 70 71 72 73 74 75 0
d 2 1 3 0
d 5 3 0
d 6 4 0
70 -7 0
-70 7 0
-69 -8 0
69 8 0
71 -9 0
-71 9 0
72 -12 0
-72 12 0
-69 -13 0
69 13 0
73 -14 0
-73 14 0
74 -15 0
-74 15 0
75 -16 0
-75 16 0
-69 -17 0
69 17 0
-69 -18 0
69 18 0
69 -19 0
-69 19 0
69 -20 0
-69 20 0
69 -21 0
-69 21 0
-7 -4 0
-7 3 0
7 4 -3 0
-8 4 0
-8 -3 0
8 -4 3 0
-9 -7 0
-9 -8 0
9 7 8 0
-10 6 0
-10 -5 0
10 -6 5 0
-11 -6 0
-11 5 0
11 6 -5 0
-12 -10 0
-12 -11 0
12 10 11 0
-13 9 0
-13 -12 0
13 -9 12 0
-14 -4 0
-14 1 0
14 4 -1 0
-15 4 0
-15 -1 0
15 -4 1 0
-16 -14 0
-16 -15 0
16 14 15 0
-17 16 0
-17 11 0
17 -16 -11 0
-18 5 0
-18 2 0
18 -5 -2 0
-19 3 0
-19 -18 0
19 -3 18 0
-20 -17 0
-20 19 0
20 17 -19 0
-21 -13 0
-21 20 0
21 13 -20 0
21 0
69 0
3 -70 0
-4 -70 0
-3 4 70 0
3 -71 0
-7 -71 0
-3 7 71 0
-10 -72 0
-11 -72 0
10 11 72 0
1 -73 0
-4 -73 0
-1 4 73 0
-1 -74 0
4 -74 0
1 -4 74 0
-14 -75 0
-15 -75 0
14 15 75 0
